
Gurobi 12.0.2 (win64) logging started Wed Nov 19 16:47:32 2025

Set parameter LogFile to value "C:\Ioana\_uni\honours\slp\algorithm\Main_files\results\paracetamol_respiration_improved\Task_002_Sample002_irr_gurobi.log"
Gurobi Optimizer version 12.0.2 build v12.0.2rc0 (win64 - Windows 11.0 (26100.2))

CPU model: Intel(R) Core(TM) Ultra 5 125H, instruction set [SSE2|AVX|AVX2]
Thread count: 14 physical cores, 18 logical processors, using up to 18 threads

Non-default parameters:
TimeLimit  2200

Optimize a model with 47236 rows, 34509 columns and 146719 nonzeros
Model fingerprint: 0x88d8923a
Variable types: 17260 continuous, 17249 integer (17249 binary)
Coefficient statistics:
  Matrix range     [1e-04, 8e+04]
  Objective range  [1e-04, 9e-01]
  Bounds range     [1e+00, 1e+03]
  RHS range        [1e+00, 1e+00]
Presolve removed 30831 rows and 21546 columns
Presolve time: 0.36s
Presolved: 16405 rows, 12963 columns, 54597 nonzeros
Variable types: 6419 continuous, 6544 integer (6544 binary)

Root relaxation: objective 6.795099e-05, 480 iterations, 0.03 seconds (0.03 work units)

    Nodes    |    Current Node    |     Objective Bounds      |     Work
 Expl Unexpl |  Obj  Depth IntInf | Incumbent    BestBd   Gap | It/Node Time

     0     0    0.00007    0    9          -    0.00007      -     -    0s
H    0     0                       0.1338919    0.00007   100%     -    0s
     0     0    0.02118    0   14    0.13389    0.02118  84.2%     -    0s
     0     0    0.02118    0   10    0.13389    0.02118  84.2%     -    0s
     0     0    0.07426    0   11    0.13389    0.07426  44.5%     -    1s

Cutting planes:
  Learned: 1
  Cover: 1
  MIR: 4
  Flow cover: 11
  Flow path: 11
  Network: 6

Explored 1 nodes (2263 simplex iterations) in 1.27 seconds (1.04 work units)
Thread count was 18 (of 18 available processors)

Solution count 1: 0.133892 

Optimal solution found (tolerance 1.00e-04)
Best objective 1.338919376813e-01, best bound 1.338919376813e-01, gap 0.0000%
